TYPE : Vertex Cover
DIMENSION: 29
EDGE_DATA_SECTION:
0 8
0 17
0 24
0 26
0 28
1 4
1 11
1 13
1 15
1 23
2 5
2 16
2 19
2 22
2 24
2 27
3 4
3 6
3 8
3 13
3 17
3 20
3 21
3 26
3 28
4 12
4 13
4 15
4 16
4 19
4 22
5 7
5 13
5 16
5 17
5 22
5 25
5 28
6 17
6 21
6 22
6 28
7 8
7 10
7 14
7 16
7 24
7 25
7 27
8 19
8 22
8 23
9 13
9 24
10 13
10 16
10 18
10 21
10 25
11 18
11 19
11 23
11 24
12 13
12 17
12 20
12 25
12 26
13 17
13 26
13 27
13 28
14 23
14 27
15 20
15 25
15 28
16 17
16 22
16 24
16 26
17 20
17 22
17 24
17 26
18 21
19 22
19 26
20 21
20 22
20 23
21 22
21 28
22 26
23 28
24 26
25 28
27 28
-1
VERTEX_DEGREE:
5.0 5.0 6.0 9.0 8.0 8.0 5.0 8.0 6.0 2.0 6.0 5.0 6.0 11.0 3.0 5.0 9.0 11.0 3.0 6.0 7.0 7.0 11.0 6.0 8.0 6.0 9.0 5.0 10.0
VERTEX_COVER:
0 1 2 3 7 12 13 14 15 16 17 18 19 21 22 23 24 25 28
EOF
